90
1594
5
85
40
25
18
16
0 4
0 5
0 7
0 9
0 15
0 17
0 18
0 22
0 26
0 27
0 28
0 31
0 36
0 37
0 38
0 42
0 47
0 48
0 51
0 53
0 54
0 58
0 59
0 60
0 63
0 64
0 67
0 69
0 70
0 73
0 76
0 77
0 78
0 79
0 85
0 87
1 7
1 13
1 14
1 15
1 16
1 17
1 18
1 31
1 33
1 34
1 36
1 37
1 38
1 39
1 41
1 44
1 54
1 59
1 60
1 61
1 67
1 69
1 77
1 78
1 84
2 4
2 7
2 10
2 14
2 15
2 18
2 20
2 23
2 25
2 26
2 27
2 36
2 37
2 39
2 44
2 46
2 50
2 51
2 56
2 59
2 60
2 63
2 65
2 66
2 71
2 72
2 74
2 80
2 81
2 83
2 85
2 86
2 87
2 88
2 89
3 4
3 6
3 12
3 14
3 19
3 20
3 21
3 23
3 24
3 25
3 31
3 32
3 33
3 36
3 39
3 40
3 41
3 47
3 48
3 51
3 54
3 55
3 57
3 58
3 60
3 61
3 62
3 63
3 64
3 72
3 74
3 75
3 77
3 78
3 84
3 88
4 5
4 9
4 13
4 29
4 31
4 33
4 45
4 51
4 52
4 57
4 58
4 59
4 60
4 61
4 68
4 71
4 72
4 73
4 75
4 76
4 77
4 78
4 83
4 84
4 87
4 88
5 8
5 10
5 12
5 13
5 14
5 20
5 22
5 23
5 26
5 28
5 31
5 32
5 33
5 35
5 37
5 40
5 42
5 44
5 48
5 49
5 51
5 52
5 53
5 57
5 58
5 62
5 63
5 65
5 66
5 68
5 70
5 73
5 74
5 75
5 78
5 80
5 81
5 82
5 87
5 88
5 89
6 12
6 24
6 25
6 27
6 28
6 29
6 31
6 41
6 43
6 45
6 47
6 49
6 50
6 52
6 54
6 57
6 58
6 59
6 60
6 61
6 68
6 70
6 72
6 73
6 78
6 80
6 83
6 84
6 86
6 87
6 89
7 8
7 10
7 11
7 12
7 16
7 17
7 18
7 24
7 26
7 32
7 33
7 35
7 36
7 38
7 40
7 42
7 43
7 45
7 47
7 50
7 51
7 58
7 59
7 61
7 62
7 66
7 67
7 69
7 70
7 71
7 77
7 80
7 83
7 85
7 86
7 88
8 14
8 15
8 16
8 24
8 25
8 27
8 29
8 32
8 33
8 34
8 48
8 54
8 63
8 66
8 69
8 70
8 71
8 73
8 74
8 75
8 76
8 78
8 79
8 81
8 83
8 84
8 85
8 87
9 10
9 13
9 15
9 16
9 18
9 19
9 21
9 23
9 24
9 26
9 27
9 28
9 29
9 33
9 39
9 40
9 42
9 45
9 46
9 49
9 51
9 55
9 58
9 60
9 61
9 66
9 67
9 70
9 75
9 76
9 77
9 78
9 84
9 85
9 87
9 88
9 89
10 12
10 15
10 16
10 17
10 19
10 21
10 23
10 24
10 26
10 27
10 34
10 38
10 39
10 40
10 43
10 44
10 45
10 46
10 56
10 57
10 59
10 64
10 65
10 73
10 74
10 78
10 80
10 84
10 85
10 86
10 87
11 12
11 13
11 14
11 15
11 20
11 21
11 22
11 24
11 29
11 30
11 32
11 37
11 38
11 43
11 49
11 50
11 51
11 54
11 56
11 58
11 59
11 61
11 64
11 65
11 69
11 71
11 73
11 76
11 78
11 82
11 85
11 86
11 87
12 13
12 14
12 15
12 17
12 18
12 19
12 21
12 22
12 23
12 28
12 31
12 34
12 35
12 37
12 39
12 42
12 45
12 46
12 49
12 55
12 58
12 60
12 63
12 65
12 72
12 79
12 82
12 84
12 86
12 87
12 88
13 14
13 20
13 21
13 22
13 25
13 26
13 28
13 33
13 35
13 38
13 42
13 53
13 54
13 56
13 57
13 58
13 59
13 60
13 63
13 65
13 73
13 74
13 75
13 81
13 84
13 85
13 86
14 15
14 22
14 26
14 27
14 31
14 34
14 37
14 41
14 42
14 43
14 44
14 51
14 54
14 55
14 56
14 58
14 59
14 60
14 64
14 65
14 67
14 68
14 72
14 73
14 75
14 79
14 80
14 82
14 84
14 85
14 89
15 16
15 19
15 20
15 21
15 23
15 24
15 25
15 28
15 29
15 30
15 35
15 38
15 40
15 43
15 45
15 50
15 55
15 56
15 59
15 60
15 62
15 63
15 66
15 68
15 71
15 73
15 74
15 76
15 77
15 88
15 89
16 17
16 20
16 21
16 25
16 26
16 30
16 32
16 34
16 36
16 38
16 40
16 43
16 44
16 45
16 53
16 55
16 56
16 58
16 60
16 64
16 66
16 71
16 72
16 73
16 74
16 75
16 76
16 80
16 81
16 83
16 88
17 18
17 19
17 21
17 23
17 24
17 25
17 28
17 36
17 37
17 40
17 43
17 47
17 55
17 57
17 58
17 64
17 66
17 67
17 69
17 71
17 72
17 73
17 74
17 75
17 76
17 77
17 83
17 88
18 20
18 30
18 36
18 44
18 47
18 48
18 49
18 52
18 53
18 54
18 55
18 56
18 58
18 63
18 65
18 69
18 75
18 76
18 81
18 83
18 84
18 87
18 89
19 22
19 26
19 27
19 28
19 31
19 32
19 34
19 37
19 41
19 42
19 52
19 54
19 55
19 57
19 59
19 68
19 69
19 70
19 72
19 77
19 79
19 80
19 82
19 83
19 85
19 87
19 88
20 21
20 22
20 23
20 24
20 29
20 30
20 35
20 37
20 38
20 42
20 45
20 49
20 57
20 58
20 59
20 61
20 65
20 66
20 67
20 69
20 70
20 72
20 73
20 74
20 76
20 77
20 78
20 79
20 82
20 83
20 84
20 85
20 86
20 88
21 22
21 25
21 26
21 27
21 29
21 34
21 36
21 39
21 42
21 43
21 45
21 48
21 49
21 54
21 57
21 63
21 64
21 69
21 72
21 73
21 75
21 76
21 79
21 82
21 86
22 24
22 28
22 30
22 31
22 33
22 34
22 38
22 41
22 43
22 44
22 45
22 47
22 48
22 49
22 50
22 51
22 53
22 54
22 56
22 57
22 58
22 61
22 63
22 70
22 72
22 73
22 75
22 81
22 82
22 83
22 84
22 86
22 87
23 24
23 25
23 26
23 27
23 29
23 34
23 35
23 36
23 38
23 45
23 47
23 48
23 50
23 54
23 55
23 57
23 58
23 60
23 63
23 64
23 66
23 70
23 72
23 73
23 77
23 78
23 81
23 83
23 84
23 85
23 86
24 25
24 26
24 27
24 28
24 30
24 31
24 32
24 36
24 37
24 39
24 43
24 46
24 48
24 49
24 50
24 54
24 57
24 62
24 63
24 65
24 68
24 70
24 73
24 80
24 82
24 83
24 84
24 88
25 28
25 30
25 34
25 37
25 39
25 41
25 42
25 46
25 48
25 49
25 50
25 58
25 61
25 62
25 64
25 65
25 66
25 68
25 71
25 72
25 77
25 81
25 86
25 89
26 28
26 29
26 30
26 32
26 34
26 36
26 37
26 38
26 45
26 48
26 50
26 52
26 56
26 65
26 73
26 75
26 78
26 83
26 86
26 87
27 28
27 29
27 34
27 35
27 37
27 40
27 43
27 44
27 45
27 46
27 50
27 52
27 54
27 56
27 58
27 59
27 63
27 65
27 68
27 69
27 73
27 75
27 76
27 77
27 78
27 81
27 84
27 86
27 89
28 32
28 33
28 35
28 38
28 39
28 40
28 41
28 42
28 44
28 45
28 50
28 51
28 56
28 57
28 58
28 59
28 60
28 62
28 65
28 68
28 70
28 71
28 72
28 74
28 75
28 77
28 84
28 85
29 30
29 33
29 34
29 35
29 37
29 38
29 39
29 40
29 42
29 43
29 45
29 48
29 51
29 52
29 53
29 54
29 56
29 59
29 61
29 62
29 68
29 69
29 70
29 71
29 72
29 75
29 77
29 78
29 80
29 82
29 85
29 88
29 89
30 31
30 33
30 38
30 42
30 44
30 52
30 53
30 55
30 59
30 61
30 64
30 65
30 68
30 78
30 80
30 81
30 83
30 84
30 86
30 89
31 32
31 34
31 37
31 43
31 44
31 48
31 51
31 52
31 56
31 57
31 58
31 59
31 60
31 61
31 62
31 63
31 67
31 72
31 74
31 76
31 81
31 87
31 89
32 34
32 36
32 38
32 41
32 47
32 50
32 51
32 54
32 55
32 57
32 61
32 63
32 64
32 65
32 68
32 71
32 72
32 73
32 77
32 79
32 80
32 82
32 87
32 88
33 36
33 39
33 40
33 41
33 43
33 47
33 50
33 51
33 54
33 55
33 56
33 57
33 58
33 59
33 61
33 62
33 63
33 64
33 68
33 69
33 70
33 72
33 80
33 83
33 86
33 88
34 35
34 38
34 40
34 41
34 43
34 50
34 52
34 56
34 57
34 58
34 59
34 60
34 62
34 64
34 67
34 68
34 73
34 76
34 77
34 80
34 82
34 83
34 84
34 85
34 86
34 88
35 37
35 40
35 44
35 46
35 48
35 54
35 56
35 57
35 61
35 62
35 64
35 66
35 69
35 70
35 75
35 80
35 81
35 82
35 87
36 37
36 39
36 42
36 43
36 47
36 48
36 51
36 52
36 53
36 56
36 58
36 62
36 64
36 65
36 76
36 77
36 78
36 79
36 81
36 84
36 85
37 47
37 48
37 49
37 50
37 64
37 65
37 76
37 77
37 78
37 80
38 40
38 41
38 42
38 43
38 48
38 53
38 54
38 58
38 59
38 60
38 61
38 62
38 65
38 68
38 78
38 79
38 85
38 86
38 88
39 41
39 42
39 43
39 44
39 45
39 50
39 51
39 52
39 53
39 54
39 56
39 57
39 58
39 59
39 67
39 70
39 79
39 80
39 81
39 82
39 83
39 85
39 87
39 88
40 41
40 42
40 45
40 57
40 58
40 60
40 64
40 66
40 68
40 69
40 72
40 74
40 75
40 81
40 82
40 83
40 85
40 87
40 88
40 89
41 44
41 46
41 49
41 53
41 54
41 58
41 59
41 64
41 70
41 73
41 74
41 78
41 80
41 89
42 45
42 51
42 54
42 57
42 59
42 61
42 64
42 67
42 68
42 75
42 76
42 78
42 83
42 88
43 44
43 46
43 49
43 50
43 54
43 55
43 56
43 57
43 61
43 63
43 66
43 75
43 76
43 77
43 81
43 83
43 84
43 85
43 88
44 45
44 46
44 50
44 53
44 59
44 60
44 63
44 65
44 66
44 67
44 70
44 75
44 76
44 77
44 78
44 79
44 80
44 81
44 82
44 84
44 87
44 89
45 48
45 49
45 53
45 57
45 58
45 59
45 60
45 65
45 67
45 70
45 71
45 72
45 73
45 76
45 78
45 79
45 82
45 84
45 89
46 50
46 53
46 55
46 56
46 58
46 59
46 64
46 68
46 76
46 79
46 80
46 81
46 86
46 88
46 89
47 49
47 51
47 53
47 57
47 59
47 61
47 63
47 66
47 69
47 72
47 73
47 76
47 78
47 80
47 81
47 83
47 86
47 89
48 51
48 53
48 54
48 57
48 64
48 71
48 76
48 79
48 84
49 56
49 59
49 61
49 62
49 65
49 68
49 74
49 76
49 78
49 82
49 86
49 87
50 54
50 55
50 57
50 58
50 62
50 72
50 77
50 80
50 86
51 55
51 59
51 60
51 64
51 66
51 69
51 70
51 71
51 72
51 75
51 77
51 80
51 81
51 85
51 89
52 54
52 57
52 58
52 59
52 60
52 62
52 63
52 64
52 70
52 72
52 76
52 77
52 78
52 82
52 87
52 88
52 89
53 54
53 58
53 60
53 64
53 68
53 74
53 83
53 84
53 85
53 86
54 56
54 58
54 60
54 61
54 79
54 83
54 84
54 85
54 87
55 58
55 59
55 60
55 67
55 68
55 69
55 75
55 79
55 82
55 84
55 87
55 88
55 89
56 57
56 59
56 60
56 61
56 66
56 70
56 71
56 72
56 74
56 78
56 79
56 80
56 82
56 84
56 87
56 88
57 58
57 59
57 60
57 61
57 67
57 68
57 69
57 73
57 75
57 78
57 79
57 80
57 81
57 86
57 88
58 59
58 61
58 62
58 66
58 68
58 71
58 75
58 77
58 80
58 81
58 82
58 83
59 60
59 61
59 63
59 64
59 68
59 71
59 72
59 74
59 78
59 80
59 82
59 87
59 88
59 89
60 61
60 67
60 68
60 73
60 75
60 81
60 83
61 63
61 64
61 67
61 68
61 69
61 70
61 71
61 72
61 75
61 80
61 83
61 84
61 88
61 89
62 64
62 65
62 66
62 69
62 70
62 71
62 74
62 76
62 79
62 80
62 81
62 85
62 86
63 64
63 66
63 67
63 68
63 69
63 70
63 72
63 80
63 82
63 84
63 85
64 66
64 67
64 72
64 73
64 74
64 75
64 76
64 77
64 79
64 81
64 82
64 84
64 85
64 86
65 68
65 69
65 70
65 71
65 74
65 75
65 79
65 80
65 83
65 87
66 67
66 69
66 70
66 74
66 76
66 77
66 83
66 84
66 85
66 89
67 70
67 74
67 76
67 81
67 83
67 87
67 89
68 69
68 71
68 72
68 73
68 74
68 76
68 78
68 79
68 82
68 83
68 85
68 86
68 87
69 72
69 74
69 75
69 77
69 79
69 80
69 82
69 85
69 86
69 89
70 73
70 74
70 79
70 80
70 83
70 84
70 86
70 88
70 89
71 72
71 79
71 80
71 82
71 84
71 89
72 73
72 77
72 79
72 83
72 84
72 86
72 89
73 74
73 77
73 82
73 84
73 88
74 78
74 81
74 84
74 87
75 76
75 78
75 79
75 81
75 82
75 85
76 78
76 81
76 82
76 84
76 86
76 87
77 80
77 81
77 85
77 86
78 79
78 81
78 84
78 87
78 89
79 83
79 87
79 89
80 82
80 86
81 82
81 84
81 85
81 86
82 83
82 86
82 87
82 88
83 88
83 89
84 86
85 86
86 89
87 88
88 89
62 88 3 53 28 7 42 74 21 14 46 83 16 13 89 55 80 27 15 50 77 58
69 47 85 87 37 36 25 54 45 1 41 60 84 30 43 59 81 12 56 32 19 24
57 76 61 67 9 31 26 68 34 5 65 33 79 17 23 22 71 75 4 44 72 8
6 40 86 10 52 38 78 29 66 20 35 39 49 11 2 82 64 73 18 70 63 0
51 48
